61319
46,59,83,128,142,199,205,228,271,303,310,388,566,647,712,795,950,962,988,1057,1074,1092,1244,1259,1272,1451,2013,2037,2399,2586,2960,2976,3031,3060,3105,3120,3320,3575,3683,3707,3713,3780,3803,3810,3841,3862,3970,4070,4211,4273,4301,4591,4732,4763,4823,4893,4985,5199,5368,5421,5498,5518,5628,5668,5781,5811,6043,6064,6229,6237,6499,6634,6656,6659,6697,6728,6738,6800,7139,7248,7249,7274,7353,7356,7378,7394,7403,7450,7455,7622,7774,7866,7951,7973,8087,8121,8138,8147,8175,8262,8345,8558,8607,8690,8996,9156,9374,9407,9479,9572,9590,9633,9665,9782,9826,9848,9867,9878
